p cnf 35 96
a 16 22 0
e 1 2 3 4 5 6 7 8 9 10 11 12 13 14 15 17 18 19 20 21 23 24 25 26 27 28 29 30 31 32 33 34 35 0
1 2 -3 0
-1 -2 -3 0
1 -2 3 0
-1 2 3 0
7 5 0
7 6 0
-5 -6 -7 0
4 7 -8 0
-4 -7 -8 0
4 -7 8 0
-4 7 8 0
-9 6 -10 0
9 -6 -10 0
-9 -6 10 0
9 6 10 0
11 -1 0
11 -10 0
1 10 -11 0
11 -9 -12 0
-11 9 -12 0
11 9 12 0
-11 -9 12 0
13 12 0
13 9 0
-12 -9 -13 0
-8 13 -14 0
8 -13 -14 0
-8 -13 14 0
8 13 14 0
-15 3 0
-15 14 0
-3 -14 15 0
-2 9 -16 0
2 -9 -16 0
-2 -9 16 0
2 9 16 0
17 -12 0
17 12 0
-18 -10 0
-18 17 0
10 -17 18 0
16 18 -19 0
-16 -18 -19 0
16 -18 19 0
-16 18 19 0
-21 -20 0
-21 -12 0
20 12 21 0
-23 22 0
-23 5 0
-22 -5 23 0
-12 -11 -24 0
12 11 -24 0
-12 11 24 0
12 -11 24 0
24 11 -25 0
-24 -11 -25 0
24 -11 25 0
-24 11 25 0
-26 -23 0
-26 -25 0
23 25 26 0
21 26 -27 0
-21 -26 -27 0
21 -26 27 0
-21 26 27 0
-29 11 0
-29 28 0
-11 -28 29 0
4 30 -31 0
-4 -30 -31 0
4 -30 31 0
-4 30 31 0
29 31 -32 0
-29 -31 -32 0
29 -31 32 0
-29 31 32 0
-33 27 0
-33 -32 0
-27 32 33 0
-34 -19 0
-34 33 0
19 -33 34 0
-35 -15 0
-35 -34 0
15 34 35 0
-1 -32 6 -20 -13 10 0
-4 16 -18 -28 34 0
6 4 -5 -10 -29 -17 -28 0
9 -3 20 2 0
21 15 2 8 0
-31 11 -7 -21 0
28 11 22 -12 2 -15 16 0
-33 -16 28 34 -8 -20 3 27 0
-26 8 20 -13 -2 -28 0
35 0
